(declare-fun _substvar_18_ () String)
(declare-fun str2 () String)
(declare-fun str3 () String)
(declare-fun str9 () String)
(declare-fun str10 () String)
(assert (not (str.prefixof str3 str9)))
(push)
(assert (= str3 str2 str10 str9 _substvar_18_))
(check-sat)
